g3 7 1 0	# problem core2
 157 122 1 0 108	# vars, constraints, objectives, ranges, eqns
 60 0	# nonlinear constraints, objectives
 0 0	# network constraints: nonlinear, linear
 60 0 0	# nonlinear vars in constraints, objectives, both
 0 0 0 1	# linear network variables; functions; arith, flags
 0 0 0 0 0	# discrete variables: binary, integer, nonlinear (b,c,o)
 381 5	# nonzeros in Jacobian, gradients
 0 0	# max name lengths: constraints, variables
 0 0 0 0 0	# common exprs: b,c,o,c1,o1
b
0 -361.167 361.167
0 -361.167 361.167
0 -361.167 361.167
0 -361.167 361.167
0 -361.167 361.167
0 -361.167 361.167
0 -361.167 361.167
0 -361.167 361.167
0 -361.167 361.167
0 -361.167 361.167
0 -361.167 361.167
0 -361.167 361.167
0 -361.167 361.167
0 -361.167 361.167
0 -361.167 361.167
0 -361.167 361.167
0 -361.167 361.167
0 -361.167 361.167
0 -361.167 361.167
0 -361.167 361.167
0 -361.167 361.167
0 -361.167 361.167
0 -361.167 361.167
0 -361.167 361.167
0 -361.167 361.167
0 -361.167 361.167
0 -361.167 361.167
0 -361.167 361.167
0 -361.167 361.167
0 -361.167 361.167
0 -361.167 361.167
0 -361.167 361.167
0 -361.167 361.167
0 -361.167 361.167
0 -361.167 361.167
0 -361.167 361.167
0 -361.167 361.167
0 -361.167 361.167
0 -361.167 361.167
0 -361.167 361.167
0 -361.167 361.167
0 -361.167 361.167
0 -361.167 361.167
0 -361.167 361.167
0 -361.167 361.167
0 -361.167 361.167
0 -361.167 361.167
0 -361.167 361.167
0 -361.167 361.167
0 -361.167 361.167
0 -361.167 361.167
0 -361.167 361.167
0 -361.167 361.167
0 -361.167 361.167
0 -361.167 361.167
0 -361.167 361.167
0 -361.167 361.167
0 -361.167 361.167
0 -361.167 361.167
0 -361.167 361.167
0 2.33333 6.41667
0 4.92222 13.5361
0 13.1333 36.1167
0 9.55556 26.2778
0 6.06667 16.6833
0 0 6400
0 1600 6400
0 0 6400
0 1600 6400
0 1600 6400
0 1600 6400
0 0 6400
0 1600 6400
0 1600 6400
0 0 6400
0 1600 6400
0 0 6400
0 1600 6400
0 1600 6400
0 0 6400
0 1600 6400
0 1600 6400
0 1600 6400
0 0 6400
0 1600 6400
0 1600 4489
0 1600 6400
0 1600 6400
0 0 6400
0 1600 6400
0 1600 6400
0 0 6400
0 1600 6400
0 0 6400
0 1600 6400
0 1600 6400
0 0 6400
0 1600 6400
0 0 6400
0 1600 6400
0 1600 6400
0 0 4489
0 1600 6400
0 1600 6400
0 1600 6400
0 1600 6400
0 1600 6400
0 1600 6400
0 1600 4489
0 1600 6400
0 1600 6400
0 1600 6400
0 1600 6400
1 1e+30
1 1e+30
1 1e+30
1 4.8
1 24.5
1 13.2
1 1e+30
2 8.9
3
3
3
3
3
3
3
3
3
3
3
3
3
3
3
2 3.5
2 1.7
2 1.5
2 0.8
2 1.3
3
3
3
3
3
3
3
2 0.7
2 1.5
2 4.3
2 1.5
3
3
3
2 1.1
2 5
x157
0 2.28416
1 1.28924
2 -4.11076
3 -4.11076
4 8.34083
5 6.67356
6 5.1525
7 -1.52106
8 1.49619
9 0.863464
10 2.38452
11 0.184522
12 -0.280167
13 -0.280167
14 -0.280167
15 -0.0956457
16 0.483333
17 0
18 5.8
19 3.62164
20 3.1592
21 0
22 -1.1408
23 2.96863
24 6.56169
25 0.316455
26 -0.274176
27 -0.671257
28 -0.671257
29 -1.52215
30 -1.14514
31 -0.231222
32 -0.231221
33 1.82783
34 0.480828
35 -0.301828
36 10.6084
37 9.74452
38 1.77661
39 -0.209158
40 -0.512076
41 -0.512076
42 -1.16119
43 -1.14514
44 -0.231221
45 -0.231221
46 2.20035
47 -1.12775
48 1.91798
49 0
50 11.5931
51 7.7111
52 1.14942
53 1.14942
54 3.17981
55 2.37981
56 2.43611
57 0
58 2.2
59 0
60 0
61 0
62 0
63 0
64 0
65 0
66 0
67 0
68 0
69 0
70 0
71 0
72 0
73 0
74 0
75 0
76 0
77 0
78 0
79 0
80 0
81 0
82 0
83 0
84 0
85 0
86 0
87 0
88 0
89 0
90 0
91 0
92 0
93 0
94 0
95 0
96 0
97 0
98 0
99 0
100 0
101 0
102 0
103 0
104 0
105 0
106 0
107 0
108 0
109 0
110 0
111 0
112 0
113 0
114 0
115 0
116 0
117 0
118 0
119 0
120 0
121 0
122 0
123 0
124 0
125 0
126 0
127 0
128 0
129 0
130 0
131 0
132 0
133 0
134 0
135 0
136 0
137 0
138 0
139 0
140 0
141 0
142 0
143 0
144 0
145 0
146 0
147 0
148 0
149 0
150 0
151 0
152 0
153 0
154 0
155 0
156 0
r
4 0
4 0
4 0
4 0
4 0
4 0
4 0
4 0
4 0
4 0
4 0
4 0
4 0
4 0
4 0
4 0
4 0
4 0
4 0
4 0
4 0
4 0
4 0
4 0
4 0
4 0
4 0
4 0
4 0
4 0
4 0
4 0
4 0
4 0
4 0
4 0
4 0
4 0
4 0
4 0
4 0
4 0
4 0
4 0
4 0
4 0
4 0
4 0
4 0
4 0
4 0
4 0
4 0
4 0
4 0
4 0
4 0
4 0
4 0
4 0
4 0
4 0
4 0
4 0
4 0
4 0
4 0
4 0
4 0
4 0
4 0
4 0
4 0
4 0
4 0
4 0
4 0
4 0
4 0
4 0
4 0
4 0
4 0
4 0
4 0
4 0
4 0
4 0
4 0
4 0
4 0
4 0
4 0
4 0
4 0
4 0
4 0
4 0
4 0
4 0
4 0
4 0
4 0
4 0
4 0
4 0
4 0
4 0
1 -3.3
1 -5.4
1 -14.5
1 -2.2
1 -5.8
1 -2.3
1 -2.2
1 -1.1
1 -4.3
1 0
1 0
1 0
1 0
1 0
C0
o2
v0
o15
v0
C1
o2
v1
o15
v1
C2
o2
v2
o15
v2
C3
o2
v3
o15
v3
C4
o2
v4
o15
v4
C5
o2
v5
o15
v5
C6
o2
v6
o15
v6
C7
o2
v7
o15
v7
C8
o2
v8
o15
v8
C9
o2
v9
o15
v9
C10
o2
v10
o15
v10
C11
o2
v11
o15
v11
C12
o2
v12
o15
v12
C13
o2
v13
o15
v13
C14
o2
v14
o15
v14
C15
o2
v15
o15
v15
C16
o2
v16
o15
v16
C17
o2
v17
o15
v17
C18
o2
v18
o15
v18
C19
o2
v19
o15
v19
C20
o2
v20
o15
v20
C21
o2
v21
o15
v21
C22
o2
v22
o15
v22
C23
o2
v23
o15
v23
C24
o2
v24
o15
v24
C25
o2
v25
o15
v25
C26
o2
v26
o15
v26
C27
o2
v27
o15
v27
C28
o2
v28
o15
v28
C29
o2
v29
o15
v29
C30
o2
v30
o15
v30
C31
o2
v31
o15
v31
C32
o2
v32
o15
v32
C33
o2
v33
o15
v33
C34
o2
v34
o15
v34
C35
o2
v35
o15
v35
C36
o2
v36
o15
v36
C37
o2
v37
o15
v37
C38
o2
v38
o15
v38
C39
o2
v39
o15
v39
C40
o2
v40
o15
v40
C41
o2
v41
o15
v41
C42
o2
v42
o15
v42
C43
o2
v43
o15
v43
C44
o2
v44
o15
v44
C45
o2
v45
o15
v45
C46
o2
v46
o15
v46
C47
o2
v47
o15
v47
C48
o2
v48
o15
v48
C49
o2
v49
o15
v49
C50
o2
v50
o15
v50
C51
o2
v51
o15
v51
C52
o2
v52
o15
v52
C53
o2
v53
o15
v53
C54
o2
v54
o15
v54
C55
o2
v55
o15
v55
C56
o2
v56
o15
v56
C57
o2
v57
o15
v57
C58
o2
v58
o15
v58
C59
o2
v59
o15
v59
C60
n0
C61
n0
C62
n0
C63
n0
C64
n0
C65
n0
C66
n0
C67
n0
C68
n0
C69
n0
C70
n0
C71
n0
C72
n0
C73
n0
C74
n0
C75
n0
C76
n0
C77
n0
C78
n0
C79
n0
C80
n0
C81
n0
C82
n0
C83
n0
C84
n0
C85
n0
C86
n0
C87
n0
C88
n0
C89
n0
C90
n0
C91
n0
C92
n0
C93
n0
C94
n0
C95
n0
C96
n0
C97
n0
C98
n0
C99
n0
C100
n0
C101
n0
C102
n0
C103
n0
C104
n0
C105
n0
C106
n0
C107
n0
C108
n0
C109
n0
C110
n0
C111
n0
C112
n0
C113
n0
C114
n0
C115
n0
C116
n0
C117
n0
C118
n0
C119
n0
C120
n0
C121
n0
O0 0
n0
k156
3
6
9
12
15
18
21
24
27
30
33
36
39
42
45
48
51
54
57
60
63
66
69
72
75
78
81
84
87
90
93
96
99
102
105
108
111
114
117
120
123
126
129
132
135
138
141
144
147
150
153
156
159
162
165
168
171
174
177
180
181
182
183
184
185
188
189
191
192
193
195
200
202
204
207
208
211
213
215
218
222
224
226
229
231
233
234
235
239
241
243
246
250
253
259
263
267
271
276
280
283
285
287
289
292
293
295
297
299
301
302
304
305
307
309
311
313
315
317
319
320
322
324
326
328
330
332
334
336
338
340
342
344
346
348
350
351
352
353
354
355
357
359
361
363
365
367
369
370
371
372
373
375
377
379
380
J0 3
0 0
65 -0.697133
66 0.697133
J1 3
1 0
67 -0.00265927
68 0.00265927
J2 3
2 0
69 -0.172371
70 0.172371
J3 3
3 0
70 -0.258556
71 0.258556
J4 3
4 0
72 -0.19002
73 0.19002
J5 3
5 0
73 -4.18044
74 4.18044
J6 3
6 0
74 -0.321572
75 0.321572
J7 3
7 0
74 0.0432263
76 -0.0432263
J8 3
8 0
72 -0.00611442
77 0.00611442
J9 3
9 0
76 0.0116174
77 -0.0116174
J10 3
10 0
76 -0.259358
78 0.259358
J11 3
11 0
78 -0.259358
79 0.259358
J12 3
12 0
80 -0.0285181
81 0.0285181
J13 3
13 0
81 -0.0399253
82 0.0399253
J14 3
14 0
79 0.0285181
82 -0.0285181
J15 3
15 0
65 0.0181479
79 -0.0181479
J16 3
16 0
83 -0.0864525
84 0.0864525
J17 3
17 0
84 -0.0741022
85 0.0741022
J18 3
18 0
85 -0.19002
86 0.19002
J19 3
19 0
87 -0.023578
88 0.023578
J20 3
20 0
88 -4.18044
89 4.18044
J21 3
21 0
89 -0.522555
90 0.522555
J22 3
22 0
90 -1.39348
91 1.39348
J23 3
23 0
91 0.696739
92 -0.696739
J24 3
24 0
92 0.418044
93 -0.418044
J25 3
25 0
92 -0.000633373
94 0.000633373
J26 3
26 0
83 -0.0332711
95 0.0332711
J27 3
27 0
95 -0.0998133
96 0.0998133
J28 3
28 0
96 -0.0332711
97 0.0332711
J29 3
29 0
94 0.0332711
97 -0.0332711
J30 3
30 0
94 -0.00954957
98 0.00954957
J31 3
31 0
98 -0.066847
99 0.066847
J32 3
32 0
88 0.006077
99 -0.006077
J33 3
33 0
91 -0.41024
98 0.41024
J34 3
34 0
71 0.0998133
100 -0.0998133
J35 3
35 0
71 -0.0499067
80 0.0499067
J36 3
36 0
101 -0.34837
102 0.34837
J37 3
37 0
100 0.696739
102 -0.696739
J38 3
38 0
92 -0.0199627
94 0.0199627
J39 3
39 0
83 -0.0193623
95 0.0193623
J40 3
40 0
95 -0.058087
96 0.058087
J41 3
41 0
96 -0.0193623
97 0.0193623
J42 3
42 0
94 0.0193623
97 -0.0193623
J43 3
43 0
94 -0.00954957
98 0.00954957
J44 3
44 0
98 -0.066847
99 0.066847
J45 3
45 0
88 0.006077
99 -0.006077
J46 3
46 0
71 2.09022
100 -2.09022
J47 3
47 0
71 -0.696739
80 0.696739
J48 3
48 0
101 -0.0143027
103 0.0143027
J49 3
49 0
103 -0.109654
104 0.109654
J50 3
50 0
104 0.522555
105 -0.522555
J51 3
51 0
93 0.321572
104 -0.321572
J52 3
52 0
93 -0.164096
106 0.164096
J53 3
53 0
80 0.136747
106 -0.136747
J54 3
54 0
67 -0.0399253
107 0.0399253
J55 3
55 0
65 0.0285181
107 -0.0285181
J56 3
56 0
108 -0.182329
109 0.182329
J57 3
57 0
109 -0.182329
110 0.182329
J58 3
58 0
108 -0.0332711
111 0.0332711
J59 3
59 0
111 -0.00998133
112 0.00998133
J60 3
0 1
15 -1
55 -1
J61 2
0 -1
126 1
J62 3
1 1
54 1
116 -1
J63 2
1 -1
124 1
J64 2
2 1
125 1
J65 3
2 -1
3 1
127 1
J66 5
3 -1
34 -1
35 1
46 -1
47 1
J67 4
4 1
8 1
117 -1
140 1
J68 3
4 -1
5 1
141 1
J69 3
5 -1
6 1
7 -1
J70 2
6 -1
128 1
J71 3
7 1
9 -1
10 1
J72 3
8 -1
9 1
142 1
J73 3
10 -1
11 1
143 1
J74 3
11 -1
14 -1
15 1
J75 5
12 1
35 -1
47 -1
53 -1
129 1
J76 3
12 -1
13 1
144 1
J77 3
13 -1
14 1
145 1
J78 3
16 1
26 1
39 1
J79 3
16 -1
17 1
146 1
J80 4
17 -1
18 1
113 -1
147 1
J81 3
18 -1
149 1
150 1
J82 4
19 1
118 -1
155 1
156 1
J83 4
19 -1
20 1
32 -1
45 -1
J84 3
20 -1
21 1
152 1
J85 3
21 -1
22 1
153 1
J86 3
22 -1
23 -1
33 1
J87 5
23 1
24 -1
25 1
38 1
138 1
J88 3
24 1
51 -1
52 1
J89 7
25 -1
29 -1
30 1
38 -1
42 -1
43 1
137 1
J90 5
26 -1
27 1
39 -1
40 1
148 1
J91 4
27 -1
28 1
40 -1
41 1
J92 5
28 -1
29 1
41 -1
42 1
151 1
J93 5
30 -1
31 1
33 -1
43 -1
44 1
J94 5
31 -1
32 1
44 -1
45 1
154 1
J95 4
34 1
37 -1
46 1
130 1
J96 3
36 1
48 1
119 -1
J97 3
36 -1
37 1
121 1
J98 3
48 -1
49 1
133 1
J99 4
49 -1
50 -1
51 1
134 1
J100 3
50 1
115 -1
136 1
J101 3
52 -1
53 1
131 1
J102 3
54 -1
55 1
139 1
J103 4
56 1
58 1
114 -1
120 1
J104 3
56 -1
57 1
122 1
J105 2
57 -1
123 1
J106 3
58 -1
59 1
132 1
J107 2
59 -1
135 1
J108 3
121 -1
122 -1
123 -1
J109 2
124 -1
125 -1
J110 5
126 -1
127 -1
128 -1
129 -1
130 -1
J111 2
131 -1
132 -1
J112 3
133 -1
134 -1
135 -1
J113 2
141 -1
142 -1
J114 3
143 -1
144 -1
145 -1
J115 2
146 -1
147 -1
J116 3
152 -1
153 -1
154 -1
J117 2
60 -1
113 1
J118 2
61 -1
114 1
J119 2
62 -1
115 1
J120 4
63 -1
116 1
117 1
118 1
J121 2
64 -1
119 1
G0 5
60 1
61 1
62 1
63 1
64 1
